0 1448 875 1176 433 456 1345 1159 1354 902 
1495 0 1245 831 1428 1401 442 867 443 1203 
883 1233 0 463 444 1166 889 1503 1341 1398 
1242 903 453 0 853 1373 452 1343 1222 1443 
436 1388 474 878 0 896 1205 1386 1457 1133 
472 1349 1166 1350 900 0 1521 898 1199 472 
1443 439 843 453 1140 1449 0 1171 859 1341 
1237 837 1471 1397 1455 904 1150 0 457 455 
1343 446 1332 1225 1478 1181 847 454 0 868 
861 1182 1352 1409 1231 444 1423 441 853 0 
